jobs  (incl. supersource/sink ):	52
RESOURCES
- renewable                 : 2 R
- nonrenewable              : 2 N
- doubly constrained        : 0 D
************************************************************************
PRECEDENCE RELATIONS:
jobnr.    #modes  #successors   successors
1	1	17		2 3 4 5 6 7 8 10 11 13 16 17 18 19 21 22 25 
2	3	8		51 32 29 28 27 20 15 9 
3	3	8		50 49 48 33 28 26 14 12 
4	3	12		49 48 44 33 32 31 30 29 28 26 23 14 
5	3	5		51 49 26 14 12 
6	3	9		48 45 44 32 30 27 26 23 14 
7	3	7		45 44 38 33 28 23 14 
8	3	12		49 48 47 45 44 41 40 39 37 29 27 26 
9	3	5		48 42 38 23 14 
10	3	11		50 47 46 45 43 42 40 37 36 34 27 
11	3	9		48 44 41 40 39 38 32 26 23 
12	3	8		46 45 44 42 40 32 27 23 
13	3	7		49 45 40 39 37 36 26 
14	3	5		47 46 43 37 24 
15	3	8		48 46 45 42 40 38 37 35 
16	3	7		47 44 40 39 38 37 32 
17	3	6		45 44 43 39 37 29 
18	3	7		45 42 40 39 37 36 35 
19	3	7		47 41 39 38 37 36 35 
20	3	6		44 43 41 39 36 35 
21	3	6		46 43 41 38 37 35 
22	3	5		41 40 39 36 35 
23	3	4		43 37 36 35 
24	3	4		41 40 39 36 
25	3	3		44 42 38 
26	3	2		42 35 
27	3	2		38 35 
28	3	2		42 36 
29	3	2		36 35 
30	3	2		41 35 
31	3	2		38 36 
32	3	1		43 
33	3	1		37 
34	3	1		41 
35	3	1		52 
36	3	1		52 
37	3	1		52 
38	3	1		52 
39	3	1		52 
40	3	1		52 
41	3	1		52 
42	3	1		52 
43	3	1		52 
44	3	1		52 
45	3	1		52 
46	3	1		52 
47	3	1		52 
48	3	1		52 
49	3	1		52 
50	3	1		52 
51	3	1		52 
52	1	0		
************************************************************************
REQUESTS/DURATIONS
jobnr.	mode	dur	R1	R2	N1	N2	
------------------------------------------------------------------------
1	1	0	0	0	0	0	
2	1	3	6	9	7	6	
	2	4	5	7	6	4	
	3	9	3	7	4	3	
3	1	2	5	8	7	5	
	2	7	2	7	7	5	
	3	9	2	7	5	5	
4	1	2	8	9	6	7	
	2	3	7	9	6	6	
	3	8	4	9	6	4	
5	1	1	6	2	4	6	
	2	2	5	2	4	3	
	3	5	1	2	4	3	
6	1	5	2	2	3	9	
	2	6	2	1	3	8	
	3	7	1	1	3	4	
7	1	1	10	6	8	10	
	2	8	8	4	7	10	
	3	9	5	4	2	10	
8	1	2	10	9	5	7	
	2	3	10	8	4	6	
	3	9	10	6	3	6	
9	1	3	3	5	6	5	
	2	6	2	4	5	5	
	3	7	1	3	3	5	
10	1	6	8	3	9	9	
	2	9	7	3	7	8	
	3	10	3	3	7	5	
11	1	1	8	8	5	6	
	2	6	6	7	4	4	
	3	10	2	4	1	3	
12	1	1	6	6	7	4	
	2	2	6	5	6	2	
	3	8	6	5	2	1	
13	1	6	2	7	8	7	
	2	7	1	6	7	5	
	3	8	1	5	4	5	
14	1	3	7	7	1	8	
	2	8	6	7	1	8	
	3	9	6	7	1	7	
15	1	2	9	3	10	5	
	2	3	6	3	10	4	
	3	7	5	2	10	4	
16	1	4	5	7	4	9	
	2	6	4	6	4	8	
	3	8	4	4	4	8	
17	1	5	5	6	9	10	
	2	6	4	4	3	9	
	3	10	4	3	1	8	
18	1	2	7	3	3	7	
	2	4	4	2	2	7	
	3	5	1	2	2	7	
19	1	1	3	5	2	8	
	2	4	2	4	1	7	
	3	9	2	3	1	5	
20	1	1	9	8	3	7	
	2	8	8	4	3	5	
	3	9	8	3	3	4	
21	1	1	4	2	5	3	
	2	4	3	2	4	2	
	3	9	2	1	1	2	
22	1	1	8	10	8	10	
	2	4	6	10	7	8	
	3	5	5	10	7	6	
23	1	1	7	5	6	4	
	2	2	7	5	6	3	
	3	7	7	4	6	3	
24	1	3	7	9	5	5	
	2	7	4	7	3	4	
	3	10	3	3	3	1	
25	1	2	5	5	8	4	
	2	4	5	5	5	3	
	3	8	4	4	1	3	
26	1	5	9	5	5	2	
	2	7	8	3	4	2	
	3	8	8	2	1	1	
27	1	1	5	9	7	9	
	2	2	5	8	5	5	
	3	4	2	8	1	5	
28	1	1	9	6	2	4	
	2	4	8	6	2	3	
	3	9	7	6	2	3	
29	1	1	6	5	7	5	
	2	2	5	3	5	5	
	3	3	4	3	3	3	
30	1	1	9	7	7	10	
	2	2	8	4	6	5	
	3	8	7	2	4	3	
31	1	2	9	9	7	9	
	2	3	6	8	6	6	
	3	8	5	8	5	5	
32	1	6	4	9	7	2	
	2	7	4	9	5	2	
	3	10	4	9	4	2	
33	1	1	3	8	9	4	
	2	6	3	6	7	3	
	3	8	1	4	3	1	
34	1	3	7	6	6	1	
	2	5	7	4	5	1	
	3	8	5	4	2	1	
35	1	1	10	7	7	5	
	2	2	9	4	6	4	
	3	8	8	2	4	4	
36	1	1	8	3	8	8	
	2	4	5	3	6	7	
	3	8	3	3	5	6	
37	1	4	9	7	10	4	
	2	8	7	5	8	3	
	3	9	7	3	8	2	
38	1	7	7	9	2	3	
	2	8	6	6	1	3	
	3	9	4	3	1	2	
39	1	2	3	6	9	5	
	2	3	1	4	9	3	
	3	4	1	3	9	2	
40	1	2	10	3	8	5	
	2	7	7	3	5	5	
	3	10	5	2	5	3	
41	1	1	5	8	3	8	
	2	4	5	7	3	7	
	3	9	2	4	3	4	
42	1	4	8	5	6	8	
	2	5	8	5	5	6	
	3	6	7	5	5	2	
43	1	2	10	4	5	9	
	2	5	9	3	5	9	
	3	6	8	1	4	9	
44	1	2	9	6	8	6	
	2	4	8	4	5	4	
	3	6	7	4	3	3	
45	1	1	8	1	8	7	
	2	3	8	1	8	6	
	3	4	7	1	8	7	
46	1	6	8	2	1	5	
	2	7	7	2	1	4	
	3	10	5	1	1	4	
47	1	4	10	7	7	7	
	2	9	9	6	5	7	
	3	10	9	4	4	7	
48	1	3	2	8	8	8	
	2	6	1	7	5	5	
	3	8	1	6	3	2	
49	1	3	7	3	7	1	
	2	4	5	3	5	1	
	3	5	4	3	1	1	
50	1	5	10	5	3	6	
	2	6	8	3	3	3	
	3	10	8	2	2	1	
51	1	1	5	9	3	5	
	2	2	4	7	2	4	
	3	4	4	7	2	3	
52	1	0	0	0	0	0	
************************************************************************

 RESOURCE AVAILABILITIES 
	R 1	R 2	N 1	N 2
	56	55	238	252

************************************************************************
